\ENCODING=ISO-8859-1
\Problem name: IloCplex

Minimize
 obj: 0 x4 + 0 x5 + 0 x6 + 0 x8 + 0 x9 + 0 x14 + [ 8.64040155801556e+16 x1 ^2
      - 1.72808031160311e+17 x1 * x2 + 7.66290307044983 x1 * x4
      + 822797902.95742 x1 * x5 + 7.66290307044983 x1 * x6
      - 822797902.95742 x1 * x7 - 11.6629030704498 x1 * x8
      + 411398947.647259 x1 * x9 + 3.83145153522491 x1 * x10
      - 411398955.310162 x1 * x11 - 3.83145153522491 x1 * x12
      + 8.64040155801556e+16 x2 ^2 - 7.66290307044983 x2 * x3
      - 5.96046447753906e-8 x2 * x4 - 822797906.95742 x2 * x5
      - 19.6629030704498 x2 * x6 + 822797902.95742 x2 * x7
      + 7.66290307044983 x2 * x8 - 411398947.647259 x2 * x9
      - 3.83145153522491 x2 * x10 + 411398955.310162 x2 * x11
      + 3.83145153522491 x2 * x12 - 4 x2 * x13 + 4 x2 * x14 + 8 x2 * x17
      - 16 x2 * x18 + 8.64040155801556e+16 x3 ^2 - 1.72808031160311e+17 x3 * x4
      + 7.66290307044983 x3 * x5 - 822797902.95742 x3 * x6
      - 15.6629030704498 x3 * x7 + 822797902.95742 x3 * x8
      + 3.83145153522491 x3 * x9 - 411398947.647259 x3 * x10
      - 3.83145153522491 x3 * x11 + 411398955.310162 x3 * x12
      + 8.64040155801556e+16 x4 ^2 - 27.6629030704498 x4 * x5
      + 822797906.95742 x4 * x6 + 7.66290307044983 x4 * x7
      - 822797902.95742 x4 * x8 - 3.83145153522491 x4 * x9
      + 411398947.647259 x4 * x10 + 3.83145153522491 x4 * x11
      - 411398955.310162 x4 * x12 + 4 x4 * x13 + 4 x4 * x14 - 12 x4 * x17
      - 8 x4 * x18 + 27.9487037658691 x5 ^2 - 8 x5 * x7
      - 19.9743518829346 x5 * x9 + 3.97435188293457 x5 * x10
      - 15.8974075317383 x5 * x13 - 7.94870376586914 x5 * x14
      + 3.97435188293457 x5 * x15 + 3.97435188293457 x5 * x16 + 4 x5 * x17
      + 4 x5 * x18 + 27.9487037658691 x6 ^2 - 16 x6 * x8
      - 3.97435188293457 x6 * x9 - 11.9743518829346 x6 * x10
      + 7.94870376586914 x6 * x13 - 23.8974075317383 x6 * x14
      - 3.97435188293457 x6 * x15 + 3.97435188293457 x6 * x16 - 4 x6 * x17
      + 4 x6 * x18 + 12 x7 ^2 - 8 x7 * x11 + 12 x8 ^2 - 4 x8 * x12 + 12 x9 ^2
      - 4 x9 * x11 + 3.97435188293457 x9 * x13 + 3.97435188293457 x9 * x14
      - 4 x9 * x15 + 12 x10 ^2 - 8 x10 * x12 - 3.97435188293457 x10 * x13
      + 3.97435188293457 x10 * x14 - 8 x10 * x16 + 6 x11 ^2 + 6 x12 ^2
      + 15.9487037658691 x13 ^2 - 11.9743518829346 x13 * x15
      - 3.97435188293457 x13 * x16 - 12 x13 * x17 + 4 x13 * x18
      + 15.9487037658691 x14 ^2 + 3.97435188293457 x14 * x15
      - 7.97435188293457 x14 * x16 - 4 x14 * x17 - 8 x14 * x18 + 6 x15 ^2
      + 6 x16 ^2 + 10 x17 ^2 + 10 x18 ^2 ] / 2
Subject To
 c1:  x3  = -1
 c2:  x17  = 0
 c3:  x7  = -1
 c4:  x13  = 0
 c5:  x11  = -1
 c6:  x15  = 0
 c7:  x1  = 0
 c8:  x12  = 1
 c9:  x2  = 0
 c10: x10  = 1
 c11: x18  = 0
 c12: x16  = 1
Bounds
-1 <= x1 <= 1
-1 <= x2 <= 1
-1 <= x3 <= 1
-1 <= x4 <= 1
-1 <= x5 <= 1
-1 <= x6 <= 1
-1 <= x7 <= 1
-1 <= x8 <= 1
-1 <= x9 <= 1
-1 <= x10 <= 1
-1 <= x11 <= 1
-1 <= x12 <= 1
-1 <= x13 <= 1
-1 <= x14 <= 1
-1 <= x15 <= 1
-1 <= x16 <= 1
-1 <= x17 <= 1
-1 <= x18 <= 1
End
